RT is False
Default write of storage_offers_DA.csv just to have a file (but constraint should be inactive)
Reading model...
...model read.
creating competitive generators file...
...competitive generators recorded.
Loading data...
.. day-ahead data read.
Compiling instance...
...instance created.
Creating Offer Mitigation (model will solve as dispatch if TRUE)...
...storage offer mitigation file created
Converting model to MPEC...
...converted
MIP
NOTE: initial MIP solve with only storage competitive to get feasible solution
Solving...

Welcome to IBM(R) ILOG(R) CPLEX(R) Interactive Optimizer 12.9.0.0
  with Simplex, Mixed Integer & Barrier Optimizers
5725-A06 5725-A29 5724-Y48 5724-Y49 5724-Y54 5724-Y55 5655-Y21
Copyright IBM Corp. 1988, 2019.  All Rights Reserved.

Type 'help' for a list of available commands.
Type 'help' followed by a command name for more
information on commands.

CPLEX> Logfile 'cplex.log' closed.
Logfile 'C:\Users\Luke\Desktop\competitiveMPEC_1.16\logs\tmps2_fy00g.cplex.log' open.
CPLEX> New value for parallel optimization mode: -1
CPLEX> New value for mixed integer optimality gap tolerance: 0.01
CPLEX> New value for feasibility tolerance: 1e-05
CPLEX> New value for deterministic time limit in ticks: 250000
CPLEX> Problem 'C:\Users\Luke\Desktop\competitiveMPEC_1.16\logs\tmpgp5q3mw4.pyomo.lp' read.
Read time = 0.19 sec. (13.86 ticks)
CPLEX> Problem name         : C:\Users\Luke\Desktop\competitiveMPEC_1.16\logs\tmpgp5q3mw4.pyomo.lp
Objective sense      : Maximize
Variables            :   53321  [Nneg: 49,  Box: 21806,  Free: 4368,
                                 Binary: 27098]
Objective nonzeros   :    8971
Linear constraints   :  122164  [Less: 40983,  Greater: 58612,  Equal: 22569]
  Nonzeros           :  288496
  RHS nonzeros       :   66973

Variables            : Min LB: -5000.000        Max UB: 5000.000       
Objective nonzeros   : Min   : 0.1000000        Max   : 722.0000       
Linear constraints   :
  Nonzeros           : Min   : 0.1000000        Max   : 2910000.       
  RHS nonzeros       : Min   : 0.1000000        Max   : 3000000.       
CPLEX> CPXPARAM_Parallel                                -1
CPXPARAM_Simplex_Tolerances_Feasibility          1.0000000000000001e-05
CPXPARAM_DetTimeLimit                            250000
CPXPARAM_MIP_Tolerances_MIPGap                   0.01
Tried aggregator 3 times.
MIP Presolve eliminated 88105 rows and 18955 columns.
MIP Presolve added 3342 rows and 0 columns.
MIP Presolve modified 24500 coefficients.
Aggregator did 12832 substitutions.
Reduced MIP has 24569 rows, 20972 columns, and 68867 nonzeros.
Reduced MIP has 8281 binaries, 0 generals, 0 SOSs, and 0 indicators.
Presolve time = 0.24 sec. (169.86 ticks)
Probing fixed 404 vars, tightened 5908 bounds.
Probing time = 0.06 sec. (20.74 ticks)
Tried aggregator 2 times.
MIP Presolve eliminated 904 rows and 814 columns.
MIP Presolve modified 3002 coefficients.
Aggregator did 46 substitutions.
Reduced MIP has 23619 rows, 20112 columns, and 66102 nonzeros.
Reduced MIP has 7874 binaries, 0 generals, 0 SOSs, and 0 indicators.
Presolve time = 0.09 sec. (90.67 ticks)
Probing fixed 5 vars, tightened 199 bounds.
Probing time = 0.09 sec. (23.12 ticks)
Clique table members: 39197.
MIP emphasis: balance optimality and feasibility.
MIP search method: dynamic search.
Parallel mode: opportunistic, using up to 24 threads.
Root relaxation solution time = 0.41 sec. (657.83 ticks)

        Nodes                                         Cuts/
   Node  Left     Objective  IInf  Best Integer    Best Bound    ItCnt     Gap

      0     0    21486.4797   127                  21486.4797     6319         
      0     0    21486.1969    16                    Cuts: 65     6346         
      0     0    21486.1969    13                    Cuts: 13     6356         
      0     0    21486.1969    14                    Cuts: 13     6363         
      0     2    21486.1969    10                 Impl Bds: 6     6363         
Elapsed time = 4.91 sec. (3334.57 ticks, tree = 0.02 MB, solutions = 0)
    324    48    21431.1638     8                  21485.1816     6689         
    794   284   -46993.8564    45                  21485.1816     9741         
   1211   589   -60303.1520    31                  21485.1816    18076         
   1671   823    -4754.2313     5                  21485.1816    31293         
   2121  1224    20754.0832     6                  21484.4120    51262         
   2547  1329    20182.5820    10                  21484.4120    54918         
   2994  1525    infeasible                        21483.6699    60946         
*  3205+  957                        20487.2631    21483.6699             4.86%
   3750  1956    21404.0373    12    20487.2631    21483.6699    72209    4.86%
   5999  1532    21125.0986     7    20831.1295    21445.9798   102444    2.95%
Elapsed time = 13.05 sec. (6297.57 ticks, tree = 10.14 MB, solutions = 2)
   7600  2237    infeasible          20831.1295    21383.0664   119101    2.65%
*  7602+ 1493                        21230.4060    21383.0664             0.72%

Clique cuts applied:  5
Cover cuts applied:  4
Implied bound cuts applied:  5
Flow cuts applied:  14
Mixed integer rounding cuts applied:  7
Gomory fractional cuts applied:  15

Root node processing (before b&c):
  Real time             =    4.31 sec. (3283.21 ticks)
Parallel b&c, 24 threads:
  Real time             =   14.66 sec. (6708.53 ticks)
  Sync time (average)   =    1.04 sec.
  Wait time (average)   =    0.05 sec.
                          ------------
Total (root+branch&cut) =   18.97 sec. (9991.74 ticks)

Solution pool: 3 solutions saved.

MIP - Integer optimal, tolerance (0.01/1e-06):  Objective =  2.1230406028e+04
Current MIP best bound =  2.1383066380e+04 (gap = 152.66, 0.72%)
Solution time =   18.97 sec.  Iterations = 119192  Nodes = 7628 (37)
Deterministic time = 9991.89 ticks  (526.75 ticks/sec)

CPLEX> Incumbent solution written to file 'C:\Users\Luke\Desktop\competitiveMPEC_1.16\logs\tmph9uf9w58.cplex.sol'.
CPLEX> NOTE: no warmstart specified for MIP iteration, default behavior is true
MIP
NOTE: resolving with all competitive generators using storage-only solution to warmstart
Solving...

Welcome to IBM(R) ILOG(R) CPLEX(R) Interactive Optimizer 12.9.0.0
  with Simplex, Mixed Integer & Barrier Optimizers
5725-A06 5725-A29 5724-Y48 5724-Y49 5724-Y54 5724-Y55 5655-Y21
Copyright IBM Corp. 1988, 2019.  All Rights Reserved.

Type 'help' for a list of available commands.
Type 'help' followed by a command name for more
information on commands.

CPLEX> Logfile 'cplex.log' closed.
Logfile 'C:\Users\Luke\Desktop\competitiveMPEC_1.16\logs\tmpixugxb0f.cplex.log' open.
CPLEX> New value for parallel optimization mode: -1
CPLEX> New value for mixed integer optimality gap tolerance: 0.01
CPLEX> New value for feasibility tolerance: 1e-05
CPLEX> New value for deterministic time limit in ticks: 250000
CPLEX> Problem 'C:\Users\Luke\Desktop\competitiveMPEC_1.16\logs\tmpqyqmo34w.pyomo.lp' read.
Read time = 0.19 sec. (13.86 ticks)
CPLEX> MIP start file 'C:\Users\Luke\Desktop\competitiveMPEC_1.16\logs\tmpcf2ek2av.cplex.mst' read.
CPLEX> Problem name         : C:\Users\Luke\Desktop\competitiveMPEC_1.16\logs\tmpqyqmo34w.pyomo.lp
Objective sense      : Maximize
Variables            :   53321  [Nneg: 49,  Box: 21806,  Free: 4368,
                                 Binary: 27098]
Objective nonzeros   :    8947
Linear constraints   :  122164  [Less: 40983,  Greater: 58612,  Equal: 22569]
  Nonzeros           :  288496
  RHS nonzeros       :   66973

Variables            : Min LB: -5000.000        Max UB: 5000.000       
Objective nonzeros   : Min   : 0.1000000        Max   : 722.0000       
Linear constraints   :
  Nonzeros           : Min   : 0.1000000        Max   : 2910000.       
  RHS nonzeros       : Min   : 0.1000000        Max   : 3000000.       
CPLEX> CPXPARAM_Parallel                                -1
CPXPARAM_Simplex_Tolerances_Feasibility          1.0000000000000001e-05
CPXPARAM_DetTimeLimit                            250000
CPXPARAM_MIP_Tolerances_MIPGap                   0.01
Warning:  No solution found from 1 MIP starts.
Retaining values of one MIP start for possible repair.
Tried aggregator 3 times.
MIP Presolve eliminated 88105 rows and 18955 columns.
MIP Presolve added 3342 rows and 0 columns.
MIP Presolve modified 24500 coefficients.
Aggregator did 12832 substitutions.
Reduced MIP has 24569 rows, 20972 columns, and 68867 nonzeros.
Reduced MIP has 8281 binaries, 0 generals, 0 SOSs, and 0 indicators.
Presolve time = 0.22 sec. (169.86 ticks)
Probing fixed 404 vars, tightened 5908 bounds.
Probing time = 0.06 sec. (20.74 ticks)
Tried aggregator 2 times.
MIP Presolve eliminated 904 rows and 814 columns.
MIP Presolve modified 3002 coefficients.
Aggregator did 46 substitutions.
Reduced MIP has 23619 rows, 20112 columns, and 66102 nonzeros.
Reduced MIP has 7874 binaries, 0 generals, 0 SOSs, and 0 indicators.
Presolve time = 0.11 sec. (90.67 ticks)
Probing fixed 5 vars, tightened 199 bounds.
Probing time = 0.09 sec. (23.12 ticks)
Clique table members: 39197.
MIP emphasis: balance optimality and feasibility.
MIP search method: dynamic search.
Parallel mode: opportunistic, using up to 24 threads.
Root relaxation solution time = 0.42 sec. (663.97 ticks)

        Nodes                                         Cuts/
   Node  Left     Objective  IInf  Best Integer    Best Bound    ItCnt     Gap

      0     0    30761.6742   116                  30761.6742     6409         
      0     0    30761.2876    25                    Cuts: 88     6452         
      0     0    30761.2876    24                    Cuts: 15     6465         
      0     0    30761.2876    18                     Cuts: 7     6471         
      0     0    30761.2876    18                     Cuts: 8     6477         
Repair heuristic found nothing.
      0    17    30411.0957    25                     Cuts: 8     6536         
Elapsed time = 5.61 sec. (3840.64 ticks, tree = 0.02 MB, solutions = 0)
    489   226    26796.4367     6                  30760.2466     8101         
    907   520   -46938.1404    37                  30760.2466    12961         
   1227   740  -133089.9122    26                  30760.2466    19614         
   1624   808    30704.4268    18                  30760.2466    24736         
   2028  1099    30759.4770    20                  30760.2466    47463         
   2449  1259    infeasible                        30760.2466    62824         
   2979  1593     6161.6137    48                  30760.2466    72393         
   3495  1656    infeasible                        30760.0312    75033         
   3976  2116    30239.6825    10                  30760.0312    90521         
*  4296  2430      integral     0    29333.9052    30760.0312   100770    4.86%
Elapsed time = 11.80 sec. (6153.54 ticks, tree = 42.94 MB, solutions = 1)
*  4843  1382      integral     0    29744.3280    30760.0312   106012    3.41%
*  5506  1447      integral     0    30505.6561    30759.4770   115372    0.83%

Cover cuts applied:  54
Implied bound cuts applied:  30
Flow cuts applied:  54
Gomory fractional cuts applied:  22

Root node processing (before b&c):
  Real time             =    5.08 sec. (3804.10 ticks)
Parallel b&c, 24 threads:
  Real time             =    8.66 sec. (3193.69 ticks)
  Sync time (average)   =    0.30 sec.
  Wait time (average)   =    0.00 sec.
                          ------------
Total (root+branch&cut) =   13.73 sec. (6997.78 ticks)

Solution pool: 9 solutions saved.

MIP - Integer optimal, tolerance (0.01/1e-06):  Objective =  3.0505656098e+04
Current MIP best bound =  3.0752863943e+04 (gap = 247.208, 0.81%)
Solution time =   13.75 sec.  Iterations = 121663  Nodes = 6053 (960)
Deterministic time = 6997.93 ticks  (508.94 ticks/sec)

CPLEX> Incumbent solution written to file 'C:\Users\Luke\Desktop\competitiveMPEC_1.16\logs\tmp847uq9ma.cplex.sol'.
CPLEX> Exporting results... 
